I AM STARTING --------------------
[]
NOW I AM GOING TO SOLVE THE MODEL FOR FIRST SOLUTION
Gurobi Optimizer version 12.0.3 build v12.0.3rc0 (linux64 - "Ubuntu 22.04.5 LTS")

CPU model: AMD EPYC 7742 64-Core Processor, instruction set [SSE2|AVX|AVX2]
Thread count: 128 physical cores, 256 logical processors, using up to 32 threads

Optimize a model with 146745 rows, 33859 columns and 451974 nonzeros
Model fingerprint: 0x915d0d6f
Coefficient statistics:
  Matrix range     [1e+00, 3e+00]
  Objective range  [1e+00, 3e+00]
  Bounds range     [1e+00, 1e+00]
  RHS range        [1e+00, 1e+03]
Presolve removed 92304 rows and 20483 columns
Presolve time: 0.15s
Presolved: 54441 rows, 13376 columns, 166079 nonzeros

Concurrent LP optimizer: primal simplex, dual simplex, and barrier
Showing barrier log only...

Ordering time: 0.05s

Barrier statistics:
 Free vars  : 546
 AA' NZ     : 1.220e+05
 Factor NZ  : 3.486e+05 (roughly 27 MB of memory)
 Factor Ops : 1.896e+07 (less than 1 second per iteration)
 Threads    : 30

                  Objective                Residual
Iter       Primal          Dual         Primal    Dual     Compl     Time
   0   9.80872435e+04  4.00000000e+00  1.08e+03 1.00e+00  3.13e+00     0s
   1   5.15432574e+04  7.41995982e+01  3.88e+02 5.19e-01  1.42e+00     0s
   2   1.34686499e+04  1.11250953e+02  1.72e+01 2.02e-01  3.52e-01     0s
   3   2.84571277e+03  1.51233128e+02  8.29e-01 1.71e-02  5.08e-02     0s
   4   3.65238207e+02  1.85302560e+02  3.63e-02 8.36e-04  3.10e-03     0s
   5   2.30770150e+02  1.89934002e+02  7.98e-03 1.96e-04  6.99e-04     0s
   6   2.11393329e+02  1.90741504e+02  3.73e-03 1.48e-04  3.54e-04     0s
   7   2.05383078e+02  1.91329592e+02  2.41e-03 1.19e-04  2.41e-04     0s
   8   1.99576606e+02  1.91910853e+02  1.10e-03 9.53e-05  1.32e-04     1s
   9   1.97525631e+02  1.93910616e+02  5.48e-04 2.45e-05  6.19e-05     1s
  10   1.96089614e+02  1.94715851e+02  2.07e-04 6.09e-06  2.35e-05     1s
  11   1.95115634e+02  1.94910373e+02  1.84e-05 1.80e-06  3.52e-06     1s
  12   1.95017688e+02  1.94974493e+02  2.80e-06 5.00e-07  7.42e-07     1s
  13   1.95000774e+02  1.94999441e+02  6.16e-07 1.05e-08  2.28e-08     1s
  14   1.95000000e+02  1.95000000e+02  2.81e-09 3.29e-12  3.04e-12     1s

Barrier solved model in 14 iterations and 0.58 seconds (0.55 work units)
Optimal objective 1.95000000e+02

Crossover log...

    3852 DPushes remaining with DInf 0.0000000e+00                 1s
       0 DPushes remaining with DInf 0.0000000e+00                 1s

    5792 PPushes remaining with PInf 0.0000000e+00                 1s
       0 PPushes remaining with PInf 0.0000000e+00                 1s

  Push phase complete: Pinf 0.0000000e+00, Dinf 3.3306691e-16      1s


Solved with barrier
Iteration    Objective       Primal Inf.    Dual Inf.      Time
    8324    1.9500000e+02   0.000000e+00   0.000000e+00      1s

Use crossover to convert LP symmetric solution to basic solution...
Crossover log...

       0 DPushes remaining with DInf 0.0000000e+00                 1s

    2422 PPushes remaining with PInf 0.0000000e+00                 1s
       0 PPushes remaining with PInf 0.0000000e+00                 1s

  Push phase complete: Pinf 0.0000000e+00, Dinf 1.4210855e-14      1s

Iteration    Objective       Primal Inf.    Dual Inf.      Time
   10772    1.9500000e+02   0.000000e+00   0.000000e+00      1s

Solved in 10772 iterations and 0.79 seconds (0.67 work units)
Optimal objective  1.950000000e+02
Objective value: 195.0
lam[0,0] = 0.0
lam[0,1] = 0.0
lam[0,2] = 0.5000000000000001
lam[0,3] = 0.0
lam[0,4] = 0.0
lam[0,5] = 0.5000000000000001
lam[0,6] = 0.0
lam[0,7] = 0.0
lam[0,8] = 0.0
lam[1,0] = 0.0
lam[1,1] = 0.0
lam[1,2] = 0.5
lam[1,3] = 0.0
lam[1,4] = 0.0
lam[1,5] = 0.5
lam[1,6] = 0.0
lam[1,7] = 0.0
lam[1,8] = 0.0
lam[2,0] = 0.0
lam[2,1] = 0.0
lam[2,2] = 0.5
lam[2,3] = 0.0
lam[2,4] = 0.0
lam[2,5] = 0.5
lam[2,6] = 0.0
lam[2,7] = 0.0
lam[2,8] = 0.0
lam[3,0] = 0.0
lam[3,1] = 0.0
lam[3,2] = 0.5
lam[3,3] = 0.0
lam[3,4] = 0.0
lam[3,5] = 0.5
lam[3,6] = 0.0
lam[3,7] = 0.0
lam[3,8] = 0.0
lam[4,0] = 0.0
lam[4,1] = 0.0
lam[4,2] = 0.5
lam[4,3] = 0.0
lam[4,4] = 0.0
lam[4,5] = 0.5
lam[4,6] = 0.0
lam[4,7] = 0.0
lam[4,8] = 0.0
tau[0,0,1] = 0.5000000000000001
tau[0,0,2] = 0.5
tau[0,0,3] = 0.33333333333333337
tau[0,0,4] = 0.0
tau[0,0,L0] = 0.0
tau[0,0,L1] = 0.0
tau[0,0,L2] = 0.0
tau[0,1,1] = 0.5000000000000001
tau[0,1,2] = 0.5
tau[0,1,3] = 0.3333333333333335
tau[0,1,4] = 0.1666666666666663
tau[0,1,L0] = 0.0
tau[0,1,L1] = 0.0
tau[0,1,L2] = 0.0
tau[0,2,1] = 0.1666666666666667
tau[0,2,2] = 0.16666666666666677
tau[0,2,3] = 0.16666666666666666
tau[0,2,4] = 0.4999999999999999
tau[0,2,L0] = 0.0
tau[0,2,L1] = 0.0
tau[0,2,L2] = 0.0
tau[0,3,1] = 0.16666666666666666
tau[0,3,2] = 0.16666666666666669
tau[0,3,3] = 0.16666666666666669
tau[0,3,4] = 0.5
tau[0,3,L0] = 0.0
tau[0,3,L1] = 0.0
tau[0,3,L2] = 0.0
tau[0,4,1] = 0.16666666666666682
tau[0,4,2] = 0.16666666666666638
tau[0,4,3] = 0.0
tau[0,4,4] = 0.16666666666666669
tau[0,4,L0] = 0.0
tau[0,4,L1] = 0.0
tau[0,4,L2] = 0.0
tau[0,5,1] = 0.16666666666666646
tau[0,5,2] = 0.16666666666666669
tau[0,5,3] = 0.0
tau[0,5,4] = 0.1666666666666667
tau[0,5,L0] = 0.0
tau[0,5,L1] = 0.0
tau[0,5,L2] = 0.0
tau[1,0,2] = 0.5
tau[1,0,3] = 0.3333333333333335
tau[1,0,4] = 0.5
tau[1,0,L0] = 0.0
tau[1,0,L1] = 0.16666666666666652
tau[1,0,L2] = 0.0
tau[1,1,2] = 0.5
tau[1,1,3] = 0.5
tau[1,1,4] = 0.5
tau[1,1,L0] = 0.0
tau[1,1,L1] = 0.0
tau[1,1,L2] = 0.0
tau[1,2,2] = 0.5
tau[1,2,3] = 0.5
tau[1,2,4] = 0.0
tau[1,2,L0] = 0.0
tau[1,2,L1] = 0.0
tau[1,2,L2] = 0.0
tau[1,3,2] = 0.5
tau[1,3,3] = 0.16666666666666666
tau[1,3,4] = 0.16666666666666666
tau[1,3,L0] = 0.16666666666666674
tau[1,3,L1] = 0.0
tau[1,3,L2] = 0.0
tau[1,4,2] = 0.0
tau[1,4,3] = 0.0
tau[1,4,4] = 0.5
tau[1,4,L0] = 0.0
tau[1,4,L1] = 0.0
tau[1,4,L2] = 0.0
tau[1,5,2] = 0.0
tau[1,5,3] = 0.1666666666666667
tau[1,5,4] = 0.0
tau[1,5,L0] = 0.33333333333333326
tau[1,5,L1] = 0.0
tau[1,5,L2] = 0.0
tau[2,0,3] = 0.5
tau[2,0,4] = 0.5
tau[2,0,L0] = 0.0
tau[2,0,L1] = 0.5000000000000003
tau[2,0,L2] = 0.0
tau[2,1,3] = 0.5000000000000001
tau[2,1,4] = 0.5
tau[2,1,L0] = 0.0
tau[2,1,L1] = 0.4999999999999999
tau[2,1,L2] = 0.0
tau[2,2,3] = 0.5
tau[2,2,4] = 0.5
tau[2,2,L0] = 0.0
tau[2,2,L1] = 0.0
tau[2,2,L2] = 0.0
tau[2,3,3] = 0.5
tau[2,3,4] = 0.33333333333333326
tau[2,3,L0] = 0.16666666666666669
tau[2,3,L1] = 0.0
tau[2,3,L2] = 0.0
tau[2,4,3] = 0.5
tau[2,4,4] = 0.0
tau[2,4,L0] = 0.0
tau[2,4,L1] = 0.0
tau[2,4,L2] = 0.0
tau[2,5,3] = 0.16666666666666677
tau[2,5,4] = 0.0
tau[2,5,L0] = 0.33333333333333326
tau[2,5,L1] = 0.0
tau[2,5,L2] = 0.0
tau[3,0,4] = 0.5
tau[3,0,L0] = 0.0
tau[3,0,L1] = 0.33333333333333337
tau[3,0,L2] = 0.3333333333333335
tau[3,1,4] = 0.5
tau[3,1,L0] = 0.0
tau[3,1,L1] = 0.5
tau[3,1,L2] = 0.5
tau[3,2,4] = 0.5
tau[3,2,L0] = 0.33333333333333337
tau[3,2,L1] = 0.16666666666666666
tau[3,2,L2] = 0.0
tau[3,3,4] = 0.5
tau[3,3,L0] = 0.16666666666666669
tau[3,3,L1] = 0.0
tau[3,3,L2] = 0.0
tau[3,4,4] = 0.16666666666666669
tau[3,4,L0] = 0.3333333333333333
tau[3,4,L1] = 0.0
tau[3,4,L2] = 0.0
tau[3,5,4] = 0.1666666666666667
tau[3,5,L0] = 0.33333333333333326
tau[3,5,L1] = 0.0
tau[3,5,L2] = 0.0
tau[4,0,L0] = 0.0
tau[4,0,L1] = 0.5
tau[4,0,L2] = 0.5
tau[4,1,L0] = 0.0
tau[4,1,L1] = 0.5
tau[4,1,L2] = 0.5
tau[4,2,L0] = 0.5
tau[4,2,L1] = 0.5
tau[4,2,L2] = 0.0
tau[4,3,L0] = 0.5
tau[4,3,L1] = 0.5
tau[4,3,L2] = 0.0
tau[4,4,L0] = 0.0
tau[4,4,L1] = 0.0
tau[4,4,L2] = 0.5
tau[4,5,L0] = 0.5
tau[4,5,L1] = 0.0
tau[4,5,L2] = 0.0
m[0,0] = 1.0
m[0,1] = 1.0
m[0,2] = 1.0
m[0,3] = 1.0
m[0,4] = 1.0000000000000002
m[0,5] = 1.0
m[0,6] = 1.0
m[0,7] = 1.0
m[0,8] = 1.0
m[0,9] = 1.0
m[0,10] = 1.0
m[0,11] = 1.0
m[0,12] = 1.0
m[0,13] = 1.0
m[0,14] = 1.0
m[0,15] = 1.0
m[0,16] = 1.0
m[0,17] = 1.0
m[0,18] = 1.0
m[0,19] = 1.0
m[0,20] = 1.0
m[0,21] = 1.0
m[0,22] = 1.0
m[0,23] = 1.0
m[0,24] = 1.0
m[0,25] = 1.0
m[0,26] = 1.0
m[0,27] = 1.0
m[0,28] = 1.0
m[0,29] = 1.0
m[0,30] = 1.0
m[0,31] = 1.0
m[0,32] = 1.0
m[0,33] = 1.0
m[0,34] = 1.0
m[0,35] = 1.0
m[0,36] = 1.0
m[0,37] = 1.0
m[0,38] = 1.0
m[0,39] = 1.0
m[0,40] = 1.0
m[0,41] = 1.0
m[0,42] = 1.0
m[0,43] = 1.0
m[0,44] = 1.0000000000000002
m[0,45] = 1.0
m[0,46] = 1.0
m[0,47] = 1.0
m[0,48] = 1.0
m[0,49] = 1.0
m[0,50] = 1.0000000000000002
m[0,51] = 1.0
m[0,52] = 1.0
m[0,53] = 1.0
m[0,54] = 1.0
m[0,55] = 1.0
m[0,56] = 1.0
m[0,57] = 1.0
m[0,58] = 1.0
m[0,59] = 1.0000000000000002
m[0,60] = 1.0
m[0,61] = 1.0
m[0,62] = 1.0
m[0,63] = 1.0
m[0,64] = 1.0
m[0,65] = 1.0
m[0,66] = 1.0000000000000002
m[0,67] = 1.0
m[0,68] = 1.0
m[0,69] = 1.0
m[0,70] = 1.0
m[0,71] = 1.0
m[0,72] = 1.0
m[0,73] = 1.0
m[0,74] = 1.0
m[0,75] = 1.0
m[0,76] = 1.0
m[0,77] = 1.0
m[0,78] = 1.0
m[0,79] = 1.0
m[0,80] = 1.0
m[0,81] = 1.0
m[0,82] = 1.0000000000000002
m[0,83] = 1.0
m[0,84] = 1.0000000000000002
m[0,85] = 1.0
m[0,86] = 1.0
m[0,87] = 1.0000000000000002
m[0,88] = 1.0
m[0,89] = 1.0000000000000002
m[0,90] = 1.0000000000000002
m[0,91] = 1.0
m[0,92] = 1.0
m[0,93] = 1.0000000000000002
m[0,94] = 1.0
m[0,95] = 1.0
m[0,96] = 1.0
m[0,97] = 1.0000000000000002
m[0,98] = 1.0
m[0,99] = 1.0
m[0,100] = 1.0
m[0,101] = 1.0000000000000002
m[0,102] = 1.0
m[0,103] = 1.0000000000000002
m[0,104] = 1.0
m[0,105] = 1.0
m[0,106] = 1.0
m[0,107] = 1.0
m[0,108] = 1.0000000000000002
m[0,109] = 1.0000000000000002
m[0,110] = 1.0
m[0,111] = 1.0
m[0,112] = 1.0
m[0,113] = 1.0
m[0,114] = 1.0
m[0,115] = 1.0
m[0,116] = 1.0000000000000002
m[0,117] = 1.0
m[0,118] = 1.0
m[0,119] = 1.0000000000000002
m[0,120] = 1.0
m[0,121] = 1.0
m[0,122] = 1.0
m[0,123] = 1.0
m[0,124] = 1.0000000000000004
m[0,125] = 1.0000000000000002
m[0,126] = 1.0000000000000002
m[0,127] = 1.0
m[0,128] = 1.0
m[0,129] = 1.0
m[0,130] = 1.0
m[0,131] = 1.0
m[0,132] = 1.0
m[0,133] = 1.0
m[0,134] = 1.0
m[0,135] = 1.0
m[0,136] = 1.0
m[0,137] = 1.0
m[0,138] = 1.0
m[0,139] = 1.0
m[0,140] = 1.0
m[0,141] = 1.0
m[0,142] = 1.0000000000000002
m[0,143] = 1.0000000000000002
m[0,144] = 1.0
m[0,145] = 1.0000000000000002
m[0,146] = 1.0
m[0,147] = 1.0
m[0,148] = 1.0
m[0,149] = 1.0
m[0,150] = 1.0
m[0,151] = 1.0000000000000002
m[0,152] = 1.0
m[0,153] = 1.0
m[0,154] = 1.0
m[0,155] = 1.0
m[0,156] = 1.0000000000000002
m[0,157] = 1.0
m[0,158] = 1.0
m[0,159] = 1.0
m[0,160] = 1.0
m[0,161] = 1.0
m[0,162] = 1.0
m[0,163] = 1.0
m[0,164] = 1.0
m[0,165] = 1.0
m[0,166] = 1.0
m[0,167] = 1.0
m[0,168] = 1.0
m[0,169] = 1.0
m[0,170] = 1.0
m[0,171] = 1.0000000000000002
m[0,172] = 1.0
m[0,173] = 1.0
m[0,174] = 1.0
m[0,175] = 1.0
m[0,176] = 1.0
m[0,177] = 1.0
u[0] = 1.0
u[1] = 0.5
u[2] = 0.5
u[3] = 0.5
u[4] = 0.5
o_u[0,0] = 0.0
o_u[0,1] = 0.0
o_u[0,2] = 0.5000000000000001
o_u[0,3] = 0.0
o_u[0,4] = 0.0
o_u[0,5] = 0.5000000000000001
o_u[0,6] = 0.0
o_u[0,7] = 0.0
o_u[0,8] = 0.0
o_u[1,0] = 0.0
o_u[1,1] = 0.0
o_u[1,2] = 0.5
o_u[1,3] = 0.0
o_u[1,4] = 0.0
o_u[1,5] = 0.5
o_u[1,6] = 0.0
o_u[1,7] = 0.0
o_u[1,8] = 0.0
o_u[2,0] = 0.0
o_u[2,1] = 0.0
o_u[2,2] = 0.5
o_u[2,3] = 0.0
o_u[2,4] = 0.0
o_u[2,5] = 0.5
o_u[2,6] = 0.0
o_u[2,7] = 0.0
o_u[2,8] = 0.0
o_u[3,0] = 0.0
o_u[3,1] = 0.0
o_u[3,2] = 0.5
o_u[3,3] = 0.0
o_u[3,4] = 0.0
o_u[3,5] = 0.5
o_u[3,6] = 0.0
o_u[3,7] = 0.0
o_u[3,8] = 0.0
o_u[4,0] = 0.0
o_u[4,1] = 0.0
o_u[4,2] = 0.5
o_u[4,3] = 0.0
o_u[4,4] = 0.0
o_u[4,5] = 0.5
o_u[4,6] = 0.0
o_u[4,7] = 0.0
o_u[4,8] = 0.0
------------------------------------------------------------------------
------------------------------------------------------------------------
Saved hierarchical tree visualization to milp_tree_levels.png
[]
Gurobi Optimizer version 12.0.3 build v12.0.3rc0 (linux64 - "Ubuntu 22.04.5 LTS")

CPU model: AMD EPYC 7742 64-Core Processor, instruction set [SSE2|AVX|AVX2]
Thread count: 128 physical cores, 256 logical processors, using up to 32 threads

Optimize a model with 146745 rows, 33859 columns and 451974 nonzeros
Model fingerprint: 0x915d0d6f
Coefficient statistics:
  Matrix range     [1e+00, 3e+00]
  Objective range  [1e+00, 3e+00]
  Bounds range     [1e+00, 1e+00]
  RHS range        [1e+00, 1e+03]
Presolve removed 92304 rows and 20483 columns
Presolve time: 0.18s
Presolved: 54441 rows, 13376 columns, 166079 nonzeros

Concurrent LP optimizer: primal simplex, dual simplex, and barrier
Showing barrier log only...

Ordering time: 0.05s

Barrier statistics:
 Free vars  : 546
 AA' NZ     : 1.220e+05
 Factor NZ  : 3.486e+05 (roughly 27 MB of memory)
 Factor Ops : 1.896e+07 (less than 1 second per iteration)
 Threads    : 30

                  Objective                Residual
Iter       Primal          Dual         Primal    Dual     Compl     Time
   0   9.80872435e+04  4.00000000e+00  1.08e+03 1.00e+00  3.13e+00     0s
   1   5.15432574e+04  7.41995982e+01  3.88e+02 5.19e-01  1.42e+00     0s
   2   1.34686499e+04  1.11250953e+02  1.72e+01 2.02e-01  3.52e-01     0s
   3   2.84571277e+03  1.51233128e+02  8.29e-01 1.71e-02  5.08e-02     0s
   4   3.65238207e+02  1.85302560e+02  3.63e-02 8.36e-04  3.10e-03     0s
   5   2.30770150e+02  1.89934002e+02  7.98e-03 1.96e-04  6.99e-04     1s
   6   2.11393329e+02  1.90741504e+02  3.73e-03 1.48e-04  3.54e-04     1s
   7   2.05383078e+02  1.91329592e+02  2.41e-03 1.19e-04  2.41e-04     1s
   8   1.99576606e+02  1.91910853e+02  1.10e-03 9.53e-05  1.32e-04     1s
   9   1.97525631e+02  1.93910616e+02  5.48e-04 2.45e-05  6.19e-05     1s
  10   1.96089614e+02  1.94715851e+02  2.07e-04 6.09e-06  2.35e-05     1s
  11   1.95115634e+02  1.94910373e+02  1.84e-05 1.80e-06  3.52e-06     1s
  12   1.95017688e+02  1.94974493e+02  2.80e-06 5.00e-07  7.42e-07     1s
  13   1.95000774e+02  1.94999441e+02  6.16e-07 1.05e-08  2.28e-08     1s
  14   1.95000000e+02  1.95000000e+02  2.81e-09 3.29e-12  3.04e-12     1s

Barrier solved model in 14 iterations and 0.61 seconds (0.55 work units)
Optimal objective 1.95000000e+02

Crossover log...

    3852 DPushes remaining with DInf 0.0000000e+00                 1s
       0 DPushes remaining with DInf 0.0000000e+00                 1s

    5792 PPushes remaining with PInf 0.0000000e+00                 1s
       0 PPushes remaining with PInf 0.0000000e+00                 1s

  Push phase complete: Pinf 0.0000000e+00, Dinf 3.3306691e-16      1s


Solved with barrier
Iteration    Objective       Primal Inf.    Dual Inf.      Time
    8324    1.9500000e+02   0.000000e+00   0.000000e+00      1s

Use crossover to convert LP symmetric solution to basic solution...
Crossover log...

       0 DPushes remaining with DInf 0.0000000e+00                 1s

    2422 PPushes remaining with PInf 0.0000000e+00                 1s
       0 PPushes remaining with PInf 0.0000000e+00                 1s

  Push phase complete: Pinf 0.0000000e+00, Dinf 1.4210855e-14      1s

Iteration    Objective       Primal Inf.    Dual Inf.      Time
   10772    1.9500000e+02   0.000000e+00   0.000000e+00      1s

Solved in 10772 iterations and 0.86 seconds (0.67 work units)
Optimal objective  1.950000000e+02
Objective value: 195.0
lam[0,0] = 0.0
lam[0,1] = 0.0
lam[0,2] = 0.5000000000000001
lam[0,3] = 0.0
lam[0,4] = 0.0
lam[0,5] = 0.5000000000000001
lam[0,6] = 0.0
lam[0,7] = 0.0
lam[0,8] = 0.0
lam[1,0] = 0.0
lam[1,1] = 0.0
lam[1,2] = 0.5
lam[1,3] = 0.0
lam[1,4] = 0.0
lam[1,5] = 0.5
lam[1,6] = 0.0
lam[1,7] = 0.0
lam[1,8] = 0.0
lam[2,0] = 0.0
lam[2,1] = 0.0
lam[2,2] = 0.5
lam[2,3] = 0.0
lam[2,4] = 0.0
lam[2,5] = 0.5
lam[2,6] = 0.0
lam[2,7] = 0.0
lam[2,8] = 0.0
lam[3,0] = 0.0
lam[3,1] = 0.0
lam[3,2] = 0.5
lam[3,3] = 0.0
lam[3,4] = 0.0
lam[3,5] = 0.5
lam[3,6] = 0.0
lam[3,7] = 0.0
lam[3,8] = 0.0
lam[4,0] = 0.0
lam[4,1] = 0.0
lam[4,2] = 0.5
lam[4,3] = 0.0
lam[4,4] = 0.0
lam[4,5] = 0.5
lam[4,6] = 0.0
lam[4,7] = 0.0
lam[4,8] = 0.0
tau[0,0,1] = 0.5000000000000001
tau[0,0,2] = 0.5
tau[0,0,3] = 0.33333333333333337
tau[0,0,4] = 0.0
tau[0,0,L0] = 0.0
tau[0,0,L1] = 0.0
tau[0,0,L2] = 0.0
tau[0,1,1] = 0.5000000000000001
tau[0,1,2] = 0.5
tau[0,1,3] = 0.3333333333333335
tau[0,1,4] = 0.1666666666666663
tau[0,1,L0] = 0.0
tau[0,1,L1] = 0.0
tau[0,1,L2] = 0.0
tau[0,2,1] = 0.1666666666666667
tau[0,2,2] = 0.16666666666666677
tau[0,2,3] = 0.16666666666666666
tau[0,2,4] = 0.4999999999999999
tau[0,2,L0] = 0.0
tau[0,2,L1] = 0.0
tau[0,2,L2] = 0.0
tau[0,3,1] = 0.16666666666666666
tau[0,3,2] = 0.16666666666666669
tau[0,3,3] = 0.16666666666666669
tau[0,3,4] = 0.5
tau[0,3,L0] = 0.0
tau[0,3,L1] = 0.0
tau[0,3,L2] = 0.0
tau[0,4,1] = 0.16666666666666682
tau[0,4,2] = 0.16666666666666638
tau[0,4,3] = 0.0
tau[0,4,4] = 0.16666666666666669
tau[0,4,L0] = 0.0
tau[0,4,L1] = 0.0
tau[0,4,L2] = 0.0
tau[0,5,1] = 0.16666666666666646
tau[0,5,2] = 0.16666666666666669
tau[0,5,3] = 0.0
tau[0,5,4] = 0.1666666666666667
tau[0,5,L0] = 0.0
tau[0,5,L1] = 0.0
tau[0,5,L2] = 0.0
tau[1,0,2] = 0.5
tau[1,0,3] = 0.3333333333333335
tau[1,0,4] = 0.5
tau[1,0,L0] = 0.0
tau[1,0,L1] = 0.16666666666666652
tau[1,0,L2] = 0.0
tau[1,1,2] = 0.5
tau[1,1,3] = 0.5
tau[1,1,4] = 0.5
tau[1,1,L0] = 0.0
tau[1,1,L1] = 0.0
tau[1,1,L2] = 0.0
tau[1,2,2] = 0.5
tau[1,2,3] = 0.5
tau[1,2,4] = 0.0
tau[1,2,L0] = 0.0
tau[1,2,L1] = 0.0
tau[1,2,L2] = 0.0
tau[1,3,2] = 0.5
tau[1,3,3] = 0.16666666666666666
tau[1,3,4] = 0.16666666666666666
tau[1,3,L0] = 0.16666666666666674
tau[1,3,L1] = 0.0
tau[1,3,L2] = 0.0
tau[1,4,2] = 0.0
tau[1,4,3] = 0.0
tau[1,4,4] = 0.5
tau[1,4,L0] = 0.0
tau[1,4,L1] = 0.0
tau[1,4,L2] = 0.0
tau[1,5,2] = 0.0
tau[1,5,3] = 0.1666666666666667
tau[1,5,4] = 0.0
tau[1,5,L0] = 0.33333333333333326
tau[1,5,L1] = 0.0
tau[1,5,L2] = 0.0
tau[2,0,3] = 0.5
tau[2,0,4] = 0.5
tau[2,0,L0] = 0.0
tau[2,0,L1] = 0.5000000000000003
tau[2,0,L2] = 0.0
tau[2,1,3] = 0.5000000000000001
tau[2,1,4] = 0.5
tau[2,1,L0] = 0.0
tau[2,1,L1] = 0.4999999999999999
tau[2,1,L2] = 0.0
tau[2,2,3] = 0.5
tau[2,2,4] = 0.5
tau[2,2,L0] = 0.0
tau[2,2,L1] = 0.0
tau[2,2,L2] = 0.0
tau[2,3,3] = 0.5
tau[2,3,4] = 0.33333333333333326
tau[2,3,L0] = 0.16666666666666669
tau[2,3,L1] = 0.0
tau[2,3,L2] = 0.0
tau[2,4,3] = 0.5
tau[2,4,4] = 0.0
tau[2,4,L0] = 0.0
tau[2,4,L1] = 0.0
tau[2,4,L2] = 0.0
tau[2,5,3] = 0.16666666666666677
tau[2,5,4] = 0.0
tau[2,5,L0] = 0.33333333333333326
tau[2,5,L1] = 0.0
tau[2,5,L2] = 0.0
tau[3,0,4] = 0.5
tau[3,0,L0] = 0.0
tau[3,0,L1] = 0.33333333333333337
tau[3,0,L2] = 0.3333333333333335
tau[3,1,4] = 0.5
tau[3,1,L0] = 0.0
tau[3,1,L1] = 0.5
tau[3,1,L2] = 0.5
tau[3,2,4] = 0.5
tau[3,2,L0] = 0.33333333333333337
tau[3,2,L1] = 0.16666666666666666
tau[3,2,L2] = 0.0
tau[3,3,4] = 0.5
tau[3,3,L0] = 0.16666666666666669
tau[3,3,L1] = 0.0
tau[3,3,L2] = 0.0
tau[3,4,4] = 0.16666666666666669
tau[3,4,L0] = 0.3333333333333333
tau[3,4,L1] = 0.0
tau[3,4,L2] = 0.0
tau[3,5,4] = 0.1666666666666667
tau[3,5,L0] = 0.33333333333333326
tau[3,5,L1] = 0.0
tau[3,5,L2] = 0.0
tau[4,0,L0] = 0.0
tau[4,0,L1] = 0.5
tau[4,0,L2] = 0.5
tau[4,1,L0] = 0.0
tau[4,1,L1] = 0.5
tau[4,1,L2] = 0.5
tau[4,2,L0] = 0.5
tau[4,2,L1] = 0.5
tau[4,2,L2] = 0.0
tau[4,3,L0] = 0.5
tau[4,3,L1] = 0.5
tau[4,3,L2] = 0.0
tau[4,4,L0] = 0.0
tau[4,4,L1] = 0.0
tau[4,4,L2] = 0.5
tau[4,5,L0] = 0.5
tau[4,5,L1] = 0.0
tau[4,5,L2] = 0.0
m[0,0] = 1.0
m[0,1] = 1.0
m[0,2] = 1.0
m[0,3] = 1.0
m[0,4] = 1.0000000000000002
m[0,5] = 1.0
m[0,6] = 1.0
m[0,7] = 1.0
m[0,8] = 1.0
m[0,9] = 1.0
m[0,10] = 1.0
m[0,11] = 1.0
m[0,12] = 1.0
m[0,13] = 1.0
m[0,14] = 1.0
m[0,15] = 1.0
m[0,16] = 1.0
m[0,17] = 1.0
m[0,18] = 1.0
m[0,19] = 1.0
m[0,20] = 1.0
m[0,21] = 1.0
m[0,22] = 1.0
m[0,23] = 1.0
m[0,24] = 1.0
m[0,25] = 1.0
m[0,26] = 1.0
m[0,27] = 1.0
m[0,28] = 1.0
m[0,29] = 1.0
m[0,30] = 1.0
m[0,31] = 1.0
m[0,32] = 1.0
m[0,33] = 1.0
m[0,34] = 1.0
m[0,35] = 1.0
m[0,36] = 1.0
m[0,37] = 1.0
m[0,38] = 1.0
m[0,39] = 1.0
m[0,40] = 1.0
m[0,41] = 1.0
m[0,42] = 1.0
m[0,43] = 1.0
m[0,44] = 1.0000000000000002
m[0,45] = 1.0
m[0,46] = 1.0
m[0,47] = 1.0
m[0,48] = 1.0
m[0,49] = 1.0
m[0,50] = 1.0000000000000002
m[0,51] = 1.0
m[0,52] = 1.0
m[0,53] = 1.0
m[0,54] = 1.0
m[0,55] = 1.0
m[0,56] = 1.0
m[0,57] = 1.0
m[0,58] = 1.0
m[0,59] = 1.0000000000000002
m[0,60] = 1.0
m[0,61] = 1.0
m[0,62] = 1.0
m[0,63] = 1.0
m[0,64] = 1.0
m[0,65] = 1.0
m[0,66] = 1.0000000000000002
m[0,67] = 1.0
m[0,68] = 1.0
m[0,69] = 1.0
m[0,70] = 1.0
m[0,71] = 1.0
m[0,72] = 1.0
m[0,73] = 1.0
m[0,74] = 1.0
m[0,75] = 1.0
m[0,76] = 1.0
m[0,77] = 1.0
m[0,78] = 1.0
m[0,79] = 1.0
m[0,80] = 1.0
m[0,81] = 1.0
m[0,82] = 1.0000000000000002
m[0,83] = 1.0
m[0,84] = 1.0000000000000002
m[0,85] = 1.0
m[0,86] = 1.0
m[0,87] = 1.0000000000000002
m[0,88] = 1.0
m[0,89] = 1.0000000000000002
m[0,90] = 1.0000000000000002
m[0,91] = 1.0
m[0,92] = 1.0
m[0,93] = 1.0000000000000002
m[0,94] = 1.0
m[0,95] = 1.0
m[0,96] = 1.0
m[0,97] = 1.0000000000000002
m[0,98] = 1.0
m[0,99] = 1.0
m[0,100] = 1.0
m[0,101] = 1.0000000000000002
m[0,102] = 1.0
m[0,103] = 1.0000000000000002
m[0,104] = 1.0
m[0,105] = 1.0
m[0,106] = 1.0
m[0,107] = 1.0
m[0,108] = 1.0000000000000002
m[0,109] = 1.0000000000000002
m[0,110] = 1.0
m[0,111] = 1.0
m[0,112] = 1.0
m[0,113] = 1.0
m[0,114] = 1.0
m[0,115] = 1.0
m[0,116] = 1.0000000000000002
m[0,117] = 1.0
m[0,118] = 1.0
m[0,119] = 1.0000000000000002
m[0,120] = 1.0
m[0,121] = 1.0
m[0,122] = 1.0
m[0,123] = 1.0
m[0,124] = 1.0000000000000004
m[0,125] = 1.0000000000000002
m[0,126] = 1.0000000000000002
m[0,127] = 1.0
m[0,128] = 1.0
m[0,129] = 1.0
m[0,130] = 1.0
m[0,131] = 1.0
m[0,132] = 1.0
m[0,133] = 1.0
m[0,134] = 1.0
m[0,135] = 1.0
m[0,136] = 1.0
m[0,137] = 1.0
m[0,138] = 1.0
m[0,139] = 1.0
m[0,140] = 1.0
m[0,141] = 1.0
m[0,142] = 1.0000000000000002
m[0,143] = 1.0000000000000002
m[0,144] = 1.0
m[0,145] = 1.0000000000000002
m[0,146] = 1.0
m[0,147] = 1.0
m[0,148] = 1.0
m[0,149] = 1.0
m[0,150] = 1.0
m[0,151] = 1.0000000000000002
m[0,152] = 1.0
m[0,153] = 1.0
m[0,154] = 1.0
m[0,155] = 1.0
m[0,156] = 1.0000000000000002
m[0,157] = 1.0
m[0,158] = 1.0
m[0,159] = 1.0
m[0,160] = 1.0
m[0,161] = 1.0
m[0,162] = 1.0
m[0,163] = 1.0
m[0,164] = 1.0
m[0,165] = 1.0
m[0,166] = 1.0
m[0,167] = 1.0
m[0,168] = 1.0
m[0,169] = 1.0
m[0,170] = 1.0
m[0,171] = 1.0000000000000002
m[0,172] = 1.0
m[0,173] = 1.0
m[0,174] = 1.0
m[0,175] = 1.0
m[0,176] = 1.0
m[0,177] = 1.0
u[0] = 1.0
u[1] = 0.5
u[2] = 0.5
u[3] = 0.5
u[4] = 0.5
o_u[0,0] = 0.0
o_u[0,1] = 0.0
o_u[0,2] = 0.5000000000000001
o_u[0,3] = 0.0
o_u[0,4] = 0.0
o_u[0,5] = 0.5000000000000001
o_u[0,6] = 0.0
o_u[0,7] = 0.0
o_u[0,8] = 0.0
o_u[1,0] = 0.0
o_u[1,1] = 0.0
o_u[1,2] = 0.5
o_u[1,3] = 0.0
o_u[1,4] = 0.0
o_u[1,5] = 0.5
o_u[1,6] = 0.0
o_u[1,7] = 0.0
o_u[1,8] = 0.0
o_u[2,0] = 0.0
o_u[2,1] = 0.0
o_u[2,2] = 0.5
o_u[2,3] = 0.0
o_u[2,4] = 0.0
o_u[2,5] = 0.5
o_u[2,6] = 0.0
o_u[2,7] = 0.0
o_u[2,8] = 0.0
o_u[3,0] = 0.0
o_u[3,1] = 0.0
o_u[3,2] = 0.5
o_u[3,3] = 0.0
o_u[3,4] = 0.0
o_u[3,5] = 0.5
o_u[3,6] = 0.0
o_u[3,7] = 0.0
o_u[3,8] = 0.0
o_u[4,0] = 0.0
o_u[4,1] = 0.0
o_u[4,2] = 0.5
o_u[4,3] = 0.0
o_u[4,4] = 0.0
o_u[4,5] = 0.5
o_u[4,6] = 0.0
o_u[4,7] = 0.0
o_u[4,8] = 0.0
------------------------------------------------------------------------
------------------------------------------------------------------------
Saved hierarchical tree visualization to milp_tree_levels.png
THIS IS THE INITIAL CORRECTNESS 1.0
THIS IS THE INITIAL EXPLAINABILITY 17.0
Inside find_pareto_solution_more_e
----------------------------------
THE CURRENT CORRECTNESS IS: 1.0, AND THE CURRENT EXPLAINABILITY IS: 17.0
Gurobi Optimizer version 12.0.3 build v12.0.3rc0 (linux64 - "Ubuntu 22.04.5 LTS")

CPU model: AMD EPYC 7742 64-Core Processor, instruction set [SSE2|AVX|AVX2]
Thread count: 128 physical cores, 256 logical processors, using up to 32 threads

Optimize a model with 146747 rows, 33859 columns and 452202 nonzeros
Coefficient statistics:
  Matrix range     [1e+00, 3e+00]
  Objective range  [1e+00, 3e+00]
  Bounds range     [1e+00, 1e+00]
  RHS range        [1e+00, 1e+03]
LP warm-start: use basis

Iteration    Objective       Primal Inf.    Dual Inf.      Time
       0    1.9500000e+02   1.250000e+00   0.000000e+00      0s

Solved in 1 iterations and 0.06 seconds (0.06 work units)
Infeasible model
[INFO] Model became infeasible under the new cuts.
End of find_pareto_solution_more_e 2 @@@@@@@@@@@
Inside find_pareto_solution_more_c
Gurobi Optimizer version 12.0.3 build v12.0.3rc0 (linux64 - "Ubuntu 22.04.5 LTS")

CPU model: AMD EPYC 7742 64-Core Processor, instruction set [SSE2|AVX|AVX2]
Thread count: 128 physical cores, 256 logical processors, using up to 32 threads

Optimize a model with 146747 rows, 33859 columns and 452202 nonzeros
Coefficient statistics:
  Matrix range     [1e+00, 3e+00]
  Objective range  [1e+00, 3e+00]
  Bounds range     [1e+00, 1e+00]
  RHS range        [1e+00, 1e+03]
LP warm-start: use basis

Iteration    Objective       Primal Inf.    Dual Inf.      Time
       0    1.9500000e+02   1.250000e+00   0.000000e+00      0s

Solved in 0 iterations and 0.05 seconds (0.03 work units)
Infeasible model
[INFO] Model became infeasible under the new cuts.
End of find_pareto_solution_more_c 1 |||||||||||||||||
App ending 3....................... c = 1.0 , e = 17.0

 Total time taken: 25.552358865737915 seconds